src/parsed-datasets/j30.sm/j301_1.RCP
160	32	4	47	
14	10	11	14

0	0	0	0	0	0	3	1	2	3
1	0	0	2	0	2	1	9
2	0	8	0	0	10	3	4	8	14
3	0	0	7	0	7	2	6	12
4	8	0	0	0	1	2	5	16
5	0	0	0	8	3	3	12	15	17
6	0	0	5	0	6	3	7	10	18
7	0	9	0	0	2	1	26
8	0	0	0	2	10	2	13	27
9	1	0	0	0	5	2	11	21
10	2	0	0	0	9	2	20	25
11	0	0	6	0	4	1	23
12	0	5	0	0	4	1	24
13	0	0	10	0	2	1	24
14	0	0	0	10	4	1	20
15	10	0	0	0	10	2	19	25
16	0	0	7	0	10	3	20	25	28
17	5	0	0	0	7	1	22
18	0	0	0	7	10	1	24
19	0	0	3	0	7	1	30
20	0	7	0	0	2	1	30
21	10	0	0	0	1	2	26	28
22	8	0	0	0	2	1	30
23	0	0	0	8	2	1	28
24	0	0	0	7	2	1	29
25	7	0	0	0	9	1	26
26	0	0	0	1	1	1	29
27	8	0	0	0	4	1	29
28	0	3	0	0	7	1	31
29	0	0	8	0	8	1	31
30	0	6	0	0	9	1	31
31	0	0	0	0	0	0
