src/parsed-datasets/j30.sm/j301_1.sm
h;158
s;32
r;4

12;13;4;12

0;0;0;0;3;2;3;4
1;0;4;8;3;6;11;15
2;0;10;4;3;7;8;13
3;3;3;6;3;5;9;10
4;0;3;3;1;20
5;3;8;8;1;30
6;0;4;5;1;27
7;1;1;9;3;12;19;27
8;0;6;2;1;14
9;3;1;7;2;16;25
10;1;5;9;2;20;26
11;1;7;2;1;14
12;0;4;6;2;17;18
13;1;8;3;1;17
14;0;3;9;1;25
15;3;5;10;2;21;22
16;3;8;6;1;22
17;3;7;5;2;20;22
18;1;1;3;2;24;29
19;1;10;7;2;23;25
20;3;6;2;1;28
21;0;2;7;1;23
22;0;3;2;1;24
23;1;9;3;1;30
24;0;4;3;1;30
25;2;4;7;1;31
26;3;7;8;1;28
27;1;8;3;1;31
28;1;7;7;1;32
29;1;7;2;1;32
30;2;2;2;1;32
31;0;0;0;0
